Optimal - objective value 2.00000000
      0 C0000000               2                      -0
      1 C0000001               2                      -0
      0 X0000000               2                       1
